GLPSOL: GLPK LP/MIP Solver, v4.55
Parameter(s) specified in the command line:
 -m tmp.mod
Reading model section from tmp.mod...
Reading data section from tmp.mod...
1563 lines were read
Generating obj...
Generating kirhoff...
Generating init_charge...
Generating batt_size...
Model has been successfully generated
GLPK Simplex Optimizer, v4.55
2417 rows, 2064 columns, 4136 non-zeros
Preprocessing...
1204 rows, 2024 columns, 4068 non-zeros
Scaling...
 A: min|aij| =  1.000e+00  max|aij| =  1.000e+00  ratio =  1.000e+00
Problem data seem to be well scaled
Constructing initial basis...
Size of triangular part is 824
      0: obj =   0.000000000e+00  infeas =  9.270e+02 (380)
*   219: obj =   1.780000000e+02  infeas =  0.000e+00 (324)
*   253: obj =   1.340000000e+02  infeas =  0.000e+00 (324)
OPTIMAL LP SOLUTION FOUND
Time used:   0.0 secs
Memory used: 4.8 Mb (5083112 bytes)
#OUTPUT:
134
-57 -25 -62 0 0 -9 -7 -6 -60 7 0 0 0 0 0 0 -60 0 0 0 20 0 0 0 -24 -1 0 -30 39 1 -5 0 0 0 0 0 -14 4 -2 -29 0 0 -5 0 0 0 -17 -26 6 0 0 -63 -1 14 0 0 0 0 0 0 0 0 -14 0 0 0 0 0 0 0 0 0 0 -10 0 0 0 0 0 0 0 0 0 0 -5 0 0 0 0 0 0 0 0 0 1 0 -4 35 -9 3 14 26 -6 1 2 -2 0 14 0 0 0 0 0 10 0 0 0 0 0 0 5 0 0 0 0 0 0 0 0 0 0 0 0 0 0 0 0 0 0 0 0 0 0 0 0 0 0 0 0 0 0 0 0 0 0 0 0 0 0 0 0 0 0 0 0 0 0 0 0 0 0 0 0 0 0 0 0 0 0 0 0 0 0 0 0 0 0 0 0 0 0 0 0 0 0 0 0 0 0 0 0 0 0 0 0 0 0 0 0 0 0 0 0 0 0 0 0 0 0 0 0 0 0 0 0 0 0 0 0 0 0 0 0 0 0 0 0 0 0 0 0 0 0 0 0 0 0 0 0 0 0 0 
-57 -49 19 0 4 0 8 -19 -21 7 0 0 0 0 0 0 -14 0 3 -4 20 0 -3 2 -48 -1 0 -31 39 -50 5 0 4 0 0 0 -58 0 -2 -61 0 0 5 0 0 0 -14 -30 -20 1 0 0 -3 -35 0 0 0 -1 0 0 0 0 35 0 0 0 0 2 2 0 0 0 0 10 0 0 -61 7 -4 0 0 0 0 0 7 -5 0 0 2 1 4 0 -10 8 0 0 0 39 -12 -4 14 30 20 -50 3 -2 0 -35 0 -2 0 0 0 -10 7 0 -7 -7 4 1 -6 -1 5 -2 3 -4 0 0 0 0 0 0 0 0 0 0 0 0 0 0 0 0 0 0 0 0 0 0 0 0 0 0 0 0 0 0 0 0 0 0 0 0 0 0 0 0 0 0 0 0 0 0 0 0 0 0 0 0 0 0 0 0 0 0 0 0 0 0 0 0 0 0 0 0 0 0 0 0 0 0 0 0 0 0 0 0 0 0 0 0 0 0 0 0 0 0 0 0 0 0 0 0 0 0 0 0 0 0 0 0 0 0 0 0 0 0 0 0 0 0 0 0 0 0 0 0 0 0 0 0 0 0 
-57 -12 -42 -5 3 0 0 19 -7 7 0 10 -1 0 -15 0 0 0 0 0 0 0 0 0 -10 -1 0 -10 19 -55 0 -6 -3 -1 0 -15 0 0 0 -39 0 0 0 0 0 0 0 -7 -19 0 -6 0 -3 0 0 0 0 0 0 0 0 0 0 0 58 0 0 1 1 0 0 7 0 -10 0 36 0 0 0 0 0 0 0 0 -2 0 0 0 0 3 0 0 0 0 1 10 0 19 0 0 0 7 19 3 0 0 0 0 -58 -1 -6 6 -7 10 -28 -1 -7 0 3 0 2 0 0 0 -3 0 0 0 0 0 0 0 0 0 0 0 0 0 0 0 0 0 0 0 0 0 0 0 0 0 0 0 0 0 0 0 0 0 0 0 0 0 0 0 0 0 0 0 0 0 0 0 0 0 0 0 0 0 0 0 0 0 0 0 0 0 0 0 0 0 0 0 0 0 0 0 0 0 0 0 0 0 0 0 0 0 0 0 0 0 0 0 0 0 0 0 0 0 0 0 0 0 0 0 0 0 0 0 0 0 0 0 0 0 0 0 0 0 0 0 0 0 0 0 0 0 0 0 0 0 0 0 
0 0 0 0 0 0 0 0 0 0 0 0 0 0 0 0 0 0 0 0 0 0 0 0 0 0 0 0 0 0 0 0 0 0 0 0 0 0 0 0 0 0 0 0 0 0 0 0 0 0 0 0 0 0 0 0 0 0 0 0 0 0 0 0 0 0 0 0 0 0 0 0 0 0 0 0 0 0 0 0 0 0 0 0 0 0 0 0 0 0 0 0 0 0 0 0 0 0 0 0 0 0 0 0 0 0 0 0 0 0 0 0 0 0 0 0 0 0 0 0 0 0 0 0 0 0 0 0 0 0 0 0 0 0 0 0 0 0 0 0 0 0 0 0 0 0 0 0 0 0 0 0 0 0 0 0 0 0 0 0 0 0 0 0 0 0 0 0 0 0 0 0 0 0 0 0 0 0 0 0 0 0 0 0 0 0 0 0 0 0 0 0 0 0 0 0 0 0 0 0 0 0 0 0 0 0 0 0 0 0 0 0 0 0 0 0 0 0 0 0 0 0 0 0 0 0 0 0 0 0 0 0 0 0 0 0 0 0 0 0 0 0 0 0 0 0 0 0 0 0 0 0 
#OUTPUT END
Model has been successfully processed
